10 10 3

0 315 386 462 165 388 459 227 88 104 
72 0 259 131 473 391 481 121 368 313 
379 64 0 416 55 193 378 390 115 83 
296 260 232 0 310 74 117 478 189 211 
437 366 250 247 0 144 459 84 323 105 
272 151 180 84 480 0 401 206 485 300 
83 130 365 323 376 124 0 55 393 355 
329 126 494 491 62 116 240 0 467 417 
405 50 447 216 272 97 102 62 0 283 
453 219 267 253 252 347 324 75 429 0 

64.9 0 4
64.9 1 2
64.9 2 3
64.9 3 7
64.9 4 1
64.9 5 4
64.9 6 7
64.9 7 6
64.9 8 5
64.9 9 5

